(set-logic QF_S)
(declare-fun var_0xINPUT_228349 () String)
(assert (and (= (len var_0xINPUT_228349) 0) (= (len var_0xINPUT_228349) 0) (not (= var_0xINPUT_228349 "4PH2ujcENG"))))
(check-sat var_0xINPUT_228349)